15,2	0,0	20,0	17,7	0,0	0,0	0,0	0,0	0,0	18,8
17,4	10,6	0,0	11,8	8,1	0,0	0,0	7,9	0,0	0,0
0,0	0,0	10,6	0,0	15,7	16,4	0,0	0,0	10,5	0,0
15,1	0,0	17,4	0,0	0,0	0,0	5,6	0,0	0,0	0,0
0,0	16,3	0,0	6,7	8,9	0,0	0,0	7,1	0,0	0,0
0,0	14,2	11,6	0,0	12,4	7,0	0,0	0,0	14,0	0,0
0,0	6,0	0,0	10,1	0,0	0,0	6,7	0,0	0,0	11,9
16,0	0,0	11,1	0,0	0,0	0,0	0,0	0,0	0,0	16,8
0,0	10,2	0,0	17,6	13,4	0,0	0,0	14,7	0,0	0,0
0,0	0,0	10,9	0,0	0,0	14,4	10,9	0,0	0,0	12,1
0,0	5,1	0,0	0,0	16,2	0,0	11,7	0,0	19,6	14,0
11,1	0,0	15,3	0,0	9,1	0,0	9,2	16,0	15,2	0,0
0,0	13,8	0,0	0,0	0,0	18,1	0,0	16,1	5,3	15,2
14,3	15,3	10,9	0,0	0,0	9,8	0,0	15,9	11,1	0,0
19,1	0,0	16,9	0,0	15,5	13,7	8,3	14,7	0,0	0,0
0,0	17,4	0,0	13,2	0,0	8,0	0,0	15,2	0,0	0,0
10,8	0,0	6,6	15,4	10,5	0,0	0,0	15,0	0,0	0,0
0,0	0,0	13,6	0,0	0,0	18,6	19,8	0,0	5,9	18,4
8,2	0,0	0,0	14,3	11,8	15,1	16,3	13,4	0,0	7,1
0,0	14,0	0,0	7,2	0,0	0,0	18,4	0,0	18,4	9,6
									
4,4	3,1	3,7	4,9	3,9	4,3	3,0	2,6	3,7	3,1
